c generated by sgen
p cnf 57 124
-2 -3 -4 0
-1 -3 -4 0
-1 -2 -4 0
-1 -2 -3 0
-6 -7 -8 0
-5 -7 -8 0
-5 -6 -8 0
-5 -6 -7 0
-10 -11 -12 0
-9 -11 -12 0
-9 -10 -12 0
-9 -10 -11 0
-14 -15 -16 0
-13 -15 -16 0
-13 -14 -16 0
-13 -14 -15 0
-18 -19 -20 0
-17 -19 -20 0
-17 -18 -20 0
-17 -18 -19 0
-22 -23 -24 0
-21 -23 -24 0
-21 -22 -24 0
-21 -22 -23 0
-26 -27 -28 0
-25 -27 -28 0
-25 -26 -28 0
-25 -26 -27 0
-30 -31 -32 0
-29 -31 -32 0
-29 -30 -32 0
-29 -30 -31 0
-34 -35 -36 0
-33 -35 -36 0
-33 -34 -36 0
-33 -34 -35 0
-38 -39 -40 0
-37 -39 -40 0
-37 -38 -40 0
-37 -38 -39 0
-42 -43 -44 0
-41 -43 -44 0
-41 -42 -44 0
-41 -42 -43 0
-46 -47 -48 0
-45 -47 -48 0
-45 -46 -48 0
-45 -46 -47 0
-50 -51 -52 0
-49 -51 -52 0
-49 -50 -52 0
-49 -50 -51 0
-53 -54 -55 0
-53 -54 -56 0
-53 -54 -57 0
-53 -55 -56 0
-53 -55 -57 0
-53 -56 -57 0
-54 -55 -56 0
-54 -55 -57 0
-54 -56 -57 0
-55 -56 -57 0
30 46 19 0
9 46 19 0
9 30 19 0
9 30 46 0
28 5 15 0
20 5 15 0
20 28 15 0
20 28 5 0
27 48 44 0
56 48 44 0
56 27 44 0
56 27 48 0
33 55 18 0
1 55 18 0
1 33 18 0
1 33 55 0
32 35 49 0
13 35 49 0
13 32 49 0
13 32 35 0
43 23 6 0
29 23 6 0
29 43 6 0
29 43 23 0
36 24 11 0
26 24 11 0
26 36 11 0
26 36 24 0
2 39 25 0
31 39 25 0
31 2 25 0
31 2 39 0
7 34 37 0
47 34 37 0
47 7 37 0
47 7 34 0
38 21 53 0
14 21 53 0
14 38 53 0
14 38 21 0
3 22 50 0
45 22 50 0
45 3 50 0
45 3 22 0
4 41 10 0
16 41 10 0
16 4 10 0
16 4 41 0
52 54 12 0
8 54 12 0
8 52 12 0
8 52 54 0
40 17 51 0
40 17 42 0
40 17 57 0
40 51 42 0
40 51 57 0
40 42 57 0
17 51 42 0
17 51 57 0
17 42 57 0
51 42 57 0
